           8
          20
           1           9           1
           2           9           1
           3           9           1
           4           3          16
           5           3          18
           6           2          20
           7           1           3
           8           1           3
